NAME : PR143C.91979.tour
COMMENT : Cost = 0_91979
COMMENT : Found by LKH [Keld Helsgaun] Sun Sep 17 16:52:43 2017
TYPE : TOUR
DIMENSION : 143
TOUR_SECTION
1
3
5
22
23
24
36
35
30
29
28
34
49
50
52
53
54
55
56
57
58
46
47
48
59
60
77
76
75
74
73
88
93
92
91
90
72
71
45
44
43
14
13
9
7
8
17
16
15
42
41
70
69
68
67
66
65
64
63
62
61
86
87
79
80
81
84
107
109
110
111
112
113
143
142
141
140
139
138
137
136
135
134
129
128
127
126
125
124
123
122
121
120
119
118
117
116
115
94
95
96
97
98
89
78
99
100
101
102
133
132
131
130
114
103
104
105
106
108
85
83
51
31
32
33
27
26
25
37
38
39
40
21
18
20
19
12
11
10
82
6
4
2
-1
EOF
